;symbolic execution tree
(push)
(assert (le x0 java.lang.Object))
(check-sat)
(push)
(assert (le x1 java.lang.Object))
(check-sat)
(push)
(assert (le x2 java.lang.Object))
(check-sat)
(push)
(assert (le x3 java.lang.Object))
(check-sat)
(push)
(assert (le x2 java.util.Hashtable))
(check-sat)
(push)
(assert (le x3 weka.core.ProtectedProperties))
(check-sat)
(pop)
(push)
(assert (not (le x3 weka.core.ProtectedProperties)))
(check-sat)
(pop)
(push)
(assert (= x1 java.lang.String))
(check-sat)
(push)
(assert (le x3 weka.core.Instances))
(check-sat)
(pop)
(push)
(assert (not (le x3 weka.core.Instances)))
(check-sat)
(pop)
(pop)
(push)
(assert (not (= x1 java.lang.String)))
(check-sat)
(push)
(assert (le x0 weka.core.Instance))
(check-sat)
(push)
(assert (le x2 java.util.Hashtable))
(check-sat)
(push)
(assert (le x0 java.lang.Object))
(check-sat)
(pop)
(push)
(assert (not (le x0 java.lang.Object)))
(check-sat)
(pop)
(pop)
(push)
(assert (not (le x2 java.util.Hashtable)))
(check-sat)
(pop)
(push)
(assert (le x2 java.util.Hashtable))
(check-sat)
(pop)
(push)
(assert (not (le x2 java.util.Hashtable)))
(check-sat)
(pop)
(pop)
(push)
(assert (not (le x0 weka.core.Instance)))
(check-sat)
(push)
(assert (le x3 weka.core.AttributeLocator))
(check-sat)
(push)
(assert (= x1 java.lang.String))
(check-sat)
(pop)
(push)
(assert (not (= x1 java.lang.String)))
(check-sat)
(pop)
(push)
(assert (le x0 weka.core.Instance))
(check-sat)
(pop)
(push)
(assert (not (le x0 weka.core.Instance)))
(check-sat)
(pop)
(pop)
(push)
(assert (not (le x3 weka.core.AttributeLocator)))
(check-sat)
(pop)
(pop)
(pop)
(push)
(assert (le x3 weka.core.Instance))
(check-sat)
(pop)
(push)
(assert (not (le x3 weka.core.Instance)))
(check-sat)
(pop)
(push)
(assert (le x3 java.util.Vector))
(check-sat)
(pop)
(push)
(assert (not (le x3 java.util.Vector)))
(check-sat)
(push)
(assert (le x3 java.util.Vector))
(check-sat)
(pop)
(push)
(assert (not (le x3 java.util.Vector)))
(check-sat)
(pop)
(push)
(assert (= x0 java.lang.Boolean))
(check-sat)
(pop)
(push)
(assert (not (= x0 java.lang.Boolean)))
(check-sat)
(push)
(assert (le x2 java.util.Hashtable))
(check-sat)
(pop)
(push)
(assert (not (le x2 java.util.Hashtable)))
(check-sat)
(pop)
(pop)
(pop)
(push)
(assert (le x1 weka.core.Queue_currencysign_QueueNode))
(check-sat)
(push)
(assert (le x2 java.util.Hashtable))
(check-sat)
(push)
(assert (le x2 java.util.Hashtable))
(check-sat)
(pop)
(push)
(assert (not (le x2 java.util.Hashtable)))
(check-sat)
(pop)
(pop)
(push)
(assert (not (le x2 java.util.Hashtable)))
(check-sat)
(pop)
(push)
(assert (le x2 java.util.Hashtable))
(check-sat)
(pop)
(push)
(assert (not (le x2 java.util.Hashtable)))
(check-sat)
(pop)
(push)
(assert (le x2 java.util.Hashtable))
(check-sat)
(pop)
(push)
(assert (not (le x2 java.util.Hashtable)))
(check-sat)
(pop)
(push)
(assert (le x0 weka.core.Instance))
(check-sat)
(pop)
(push)
(assert (not (le x0 weka.core.Instance)))
(check-sat)
(pop)
(push)
(assert (le x1 weka.core.Queue_currencysign_QueueNode))
(check-sat)
(push)
(assert (le x1 weka.core.Queue_currencysign_QueueNode))
(check-sat)
(pop)
(push)
(assert (not (le x1 weka.core.Queue_currencysign_QueueNode)))
(check-sat)
(pop)
(pop)
(push)
(assert (not (le x1 weka.core.Queue_currencysign_QueueNode)))
(check-sat)
(pop)
(push)
(assert (le x0 java.util.Vector))
(check-sat)
(push)
(assert (le x2 java.util.Hashtable))
(check-sat)
(push)
(assert (le x1 weka.core.Queue_currencysign_QueueNode))
(check-sat)
(pop)
(push)
(assert (not (le x1 weka.core.Queue_currencysign_QueueNode)))
(check-sat)
(pop)
(pop)
(push)
(assert (not (le x2 java.util.Hashtable)))
(check-sat)
(pop)
(pop)
(push)
(assert (not (le x0 java.util.Vector)))
(check-sat)
(pop)
(pop)
(push)
(assert (not (le x1 weka.core.Queue_currencysign_QueueNode)))
(check-sat)
(pop)
(push)
(assert (le x0 weka.core.AttributeLocator))
(check-sat)
(push)
(assert (le x2 java.util.Hashtable))
(check-sat)
(push)
(assert (le x0 weka.core.AttributeLocator))
(check-sat)
(pop)
(push)
(assert (not (le x0 weka.core.AttributeLocator)))
(check-sat)
(pop)
(push)
(assert (le x2 java.util.Hashtable))
(check-sat)
(push)
(assert (le x1 java.util.HashSet))
(check-sat)
(pop)
(push)
(assert (not (le x1 java.util.HashSet)))
(check-sat)
(pop)
(pop)
(push)
(assert (not (le x2 java.util.Hashtable)))
(check-sat)
(pop)
(push)
(assert (le x1 weka.core.Instances))
(check-sat)
(pop)
(push)
(assert (not (le x1 weka.core.Instances)))
(check-sat)
(push)
(assert (le x1 weka.core.Instances))
(check-sat)
(pop)
(push)
(assert (not (le x1 weka.core.Instances)))
(check-sat)
(pop)
(pop)
(pop)
(push)
(assert (not (le x2 java.util.Hashtable)))
(check-sat)
(pop)
(push)
(assert (le x2 java.util.Hashtable))
(check-sat)
(pop)
(push)
(assert (not (le x2 java.util.Hashtable)))
(check-sat)
(pop)
(pop)
(push)
(assert (not (le x0 weka.core.AttributeLocator)))
(check-sat)
(pop)
(push)
(assert (= x1 weka.core.Capabilities_currencysign_Capability))
(check-sat)
(push)
(assert (= x1 weka.core.Capabilities_currencysign_Capability))
(check-sat)
(push)
(assert (le x3 weka.core.Instance))
(check-sat)
(pop)
(push)
(assert (not (le x3 weka.core.Instance)))
(check-sat)
(push)
(assert (= x1 weka.core.Capabilities_currencysign_Capability))
(check-sat)
(pop)
(push)
(assert (not (= x1 weka.core.Capabilities_currencysign_Capability)))
(check-sat)
(pop)
(pop)
(pop)
(push)
(assert (not (= x1 weka.core.Capabilities_currencysign_Capability)))
(check-sat)
(pop)
(pop)
(push)
(assert (not (= x1 weka.core.Capabilities_currencysign_Capability)))
(check-sat)
(push)
(assert (= x3 java.lang.String))
(check-sat)
(push)
(assert (le x2 java.util.Hashtable))
(check-sat)
(push)
(assert (le x2 java.util.Hashtable))
(check-sat)
(pop)
(push)
(assert (not (le x2 java.util.Hashtable)))
(check-sat)
(pop)
(pop)
(push)
(assert (not (le x2 java.util.Hashtable)))
(check-sat)
(pop)
(push)
(assert (le x2 java.util.Hashtable))
(check-sat)
(pop)
(push)
(assert (not (le x2 java.util.Hashtable)))
(check-sat)
(pop)
(pop)
(push)
(assert (not (= x3 java.lang.String)))
(check-sat)
(pop)
(push)
(assert (le x0 java.util.Vector))
(check-sat)
(pop)
(push)
(assert (not (le x0 java.util.Vector)))
(check-sat)
(pop)
(push)
(assert (le x2 java.util.Hashtable))
(check-sat)
(pop)
(push)
(assert (not (le x2 java.util.Hashtable)))
(check-sat)
(pop)
(pop)
(pop)
(push)
(assert (not (le x2 java.util.Hashtable)))
(check-sat)
(push)
(assert (le x2 java.util.Hashtable))
(check-sat)
(pop)
(push)
(assert (not (le x2 java.util.Hashtable)))
(check-sat)
(push)
(assert (le x2 java.util.Hashtable))
(check-sat)
(pop)
(push)
(assert (not (le x2 java.util.Hashtable)))
(check-sat)
(pop)
(push)
(assert (le x2 java.util.Hashtable))
(check-sat)
(pop)
(push)
(assert (not (le x2 java.util.Hashtable)))
(check-sat)
(pop)
(pop)
(push)
(assert (le x3 weka.core.Queue_currencysign_QueueNode))
(check-sat)
(push)
(assert (= x1 java.lang.String))
(check-sat)
(push)
(assert (le x2 java.util.Hashtable))
(check-sat)
(pop)
(push)
(assert (not (le x2 java.util.Hashtable)))
(check-sat)
(pop)
(push)
(assert (= x1 java.lang.String))
(check-sat)
(push)
(assert (le x2 java.util.Hashtable))
(check-sat)
(pop)
(push)
(assert (not (le x2 java.util.Hashtable)))
(check-sat)
(pop)
(pop)
(push)
(assert (not (= x1 java.lang.String)))
(check-sat)
(pop)
(push)
(assert (le x0 java.lang.Object))
(check-sat)
(pop)
(push)
(assert (not (le x0 java.lang.Object)))
(check-sat)
(pop)
(pop)
(push)
(assert (not (= x1 java.lang.String)))
(check-sat)
(push)
(assert (= x1 java.lang.String))
(check-sat)
(pop)
(push)
(assert (not (= x1 java.lang.String)))
(check-sat)
(push)
(assert (le x2 java.util.Hashtable))
(check-sat)
(pop)
(push)
(assert (not (le x2 java.util.Hashtable)))
(check-sat)
(pop)
(pop)
(push)
(assert (= x1 java.lang.String))
(check-sat)
(pop)
(push)
(assert (not (= x1 java.lang.String)))
(check-sat)
(pop)
(pop)
(push)
(assert (le x0 weka.core.Instance))
(check-sat)
(push)
(assert (le x2 java.util.Hashtable))
(check-sat)
(pop)
(push)
(assert (not (le x2 java.util.Hashtable)))
(check-sat)
(push)
(assert (le x0 weka.core.SparseInstance))
(check-sat)
(pop)
(push)
(assert (le x0 weka.core.Instance))
(check-sat)
(push)
(assert (not (le x0 weka.core.SparseInstance)))
(check-sat)
(pop)
(pop)
(pop)
(push)
(assert (not (le x2 java.util.Hashtable)))
(check-sat)
(push)
(assert (le x1 weka.core.FastVector))
(check-sat)
(pop)
(push)
(assert (not (le x1 weka.core.FastVector)))
(check-sat)
(pop)
(pop)
(push)
(assert (le x2 java.util.AbstractMap))
(check-sat)
(pop)
(push)
(assert (le x2 weka.core.ProtectedProperties))
(check-sat)
(pop)
(push)
(assert (le x2 java.util.Hashtable))
(check-sat)
(pop)
(push)
(assert (le x2 java.awt.RenderingHints))
(check-sat)
(push)
(assert (le x0 weka.core.Instance))
(check-sat)
(pop)
(push)
(assert (not (le x0 weka.core.Instance)))
(check-sat)
(pop)
(pop)
(push)
(assert (le x2 java.util.Hashtable))
(check-sat)
(pop)
(push)
(assert (not (le x2 java.util.Hashtable)))
(check-sat)
(pop)
(pop)
(push)
(assert (not (le x0 weka.core.Instance)))
(check-sat)
(pop)
(pop)
(push)
(assert (not (le x3 weka.core.Queue_currencysign_QueueNode)))
(check-sat)
(pop)
(push)
(assert (= x1 java.lang.StringBuffer))
(check-sat)
(push)
(assert (le x2 java.util.Hashtable))
(check-sat)
(pop)
(push)
(assert (not (le x2 java.util.Hashtable)))
(check-sat)
(pop)
(push)
(assert (le x2 java.util.Hashtable))
(check-sat)
(pop)
(push)
(assert (not (le x2 java.util.Hashtable)))
(check-sat)
(pop)
(pop)
(push)
(assert (not (= x1 java.lang.StringBuffer)))
(check-sat)
(pop)
(pop)
